
Gurobi 10.0.1 (linux64) logging started Sun Nov 26 17:00:03 2023

Set parameter LogFile to value "ArtificialInstance/ExperimentV2/S4T5K2/BaSp/gurobi91.txt"
Gurobi Optimizer version 10.0.1 build v10.0.1rc0 (linux64)

CPU model: AMD EPYC 7H12 64-Core Processor, instruction set [SSE2|AVX|AVX2]
Thread count: 128 physical cores, 128 logical processors, using up to 32 threads

Academic license 656792 - for non-commercial use only - registered to b.___@student.vu.nl
Optimize a model with 4520 rows, 6800 columns and 23040 nonzeros
Model fingerprint: 0x13520b92
Variable types: 0 continuous, 6800 integer (6800 binary)
Coefficient statistics:
  Matrix range     [1e+00, 1e+00]
  Objective range  [9e-01, 2e+01]
  Bounds range     [1e+00, 1e+00]
  RHS range        [1e+00, 1e+00]
Found heuristic solution: objective 641.0328958
Presolve time: 0.03s
Presolved: 4520 rows, 6800 columns, 23040 nonzeros
Variable types: 0 continuous, 6800 integer (6800 binary)

Root relaxation: objective 4.562225e+01, 3757 iterations, 0.13 seconds (0.11 work units)

    Nodes    |    Current Node    |     Objective Bounds      |     Work
 Expl Unexpl |  Obj  Depth IntInf | Incumbent    BestBd   Gap | It/Node Time

     0     0   45.62225    0  760  641.03290   45.62225  92.9%     -    0s
H    0     0                     341.2101660   45.62225  86.6%     -    0s
H    0     0                      74.3662753   45.62225  38.7%     -    0s
     0     0   50.69889    0  901   74.36628   50.69889  31.8%     -    0s
H    0     0                      62.5569681   50.69889  19.0%     -    0s
     0     0   54.32424    0 1296   62.55697   54.32424  13.2%     -    0s
     0     0   56.11635    0 1039   62.55697   56.11635  10.3%     -    1s
     0     0   56.22233    0 1300   62.55697   56.22233  10.1%     -    1s
     0     0   56.22233    0 1300   62.55697   56.22233  10.1%     -    1s
     0     0   57.34279    0 1191   62.55697   57.34279  8.34%     -    1s
     0     0   57.38291    0 1256   62.55697   57.38291  8.27%     -    1s
     0     0   57.38424    0 1299   62.55697   57.38424  8.27%     -    1s
     0     0   57.90432    0 1362   62.55697   57.90432  7.44%     -    1s
     0     0   57.96567    0 1348   62.55697   57.96567  7.34%     -    1s
     0     0   57.96567    0 1342   62.55697   57.96567  7.34%     -    1s
     0     0   58.19596    0 1349   62.55697   58.19596  6.97%     -    2s
     0     0   58.23440    0 1353   62.55697   58.23440  6.91%     -    2s
     0     0   58.23444    0 1365   62.55697   58.23444  6.91%     -    2s
     0     0   58.52321    0 1381   62.55697   58.52321  6.45%     -    2s
     0     0   58.59058    0 1417   62.55697   58.59058  6.34%     -    2s
     0     0   58.61107    0 1401   62.55697   58.61107  6.31%     -    2s
     0     0   58.61512    0 1480   62.55697   58.61512  6.30%     -    2s
     0     0   58.61571    0 1451   62.55697   58.61571  6.30%     -    2s
     0     0   58.66957    0 1474   62.55697   58.66957  6.21%     -    2s
     0     0   58.67679    0 1487   62.55697   58.67679  6.20%     -    2s
     0     0   58.67725    0 1496   62.55697   58.67725  6.20%     -    2s
     0     0   58.68273    0 1442   62.55697   58.68273  6.19%     -    2s
     0     0   58.68369    0 1448   62.55697   58.68369  6.19%     -    2s
     0     0   58.68369    0 1451   62.55697   58.68369  6.19%     -    2s
     0     0   58.68369    0 1299   62.55697   58.68369  6.19%     -    3s
H    0     0                      61.0370197   58.68369  3.86%     -    3s
     0     0   58.68369    0  748   61.03702   58.68369  3.86%     -    3s
     0     0   58.68369    0 1306   61.03702   58.68369  3.86%     -    4s
     0     0   58.68369    0 1281   61.03702   58.68369  3.86%     -    4s
     0     0   58.68369    0 1279   61.03702   58.68369  3.86%     -    4s
     0     0   58.68369    0 1275   61.03702   58.68369  3.86%     -    4s
     0     0   58.69847    0 1307   61.03702   58.69847  3.83%     -    4s
     0     0   58.69848    0 1308   61.03702   58.69848  3.83%     -    4s
     0     0   58.88279    0 1189   61.03702   58.88279  3.53%     -    4s
     0     0   58.91408    0 1209   61.03702   58.91408  3.48%     -    4s
     0     0   58.93478    0 1202   61.03702   58.93478  3.44%     -    4s
     0     0   58.93537    0 1197   61.03702   58.93537  3.44%     -    4s
     0     0   58.93642    0 1207   61.03702   58.93642  3.44%     -    5s
     0     0   58.93869    0 1217   61.03702   58.93869  3.44%     -    5s
     0     0   58.95395    0 1279   61.03702   58.95395  3.41%     -    5s
     0     0   58.95430    0 1283   61.03702   58.95430  3.41%     -    5s
     0     0   58.95430    0 1283   61.03702   58.95430  3.41%     -    5s
     0     0   58.95430    0 1208   61.03702   58.95430  3.41%     -    5s
     0     2   58.95430    0 1208   61.03702   58.95430  3.41%     -    5s

Cutting planes:
  Gomory: 16
  Clique: 4
  Zero half: 107
  RLT: 94

Explored 26 nodes (41193 simplex iterations) in 6.19 seconds (4.47 work units)
Thread count was 32 (of 128 available processors)

Solution count 5: 61.037 62.557 74.3663 ... 641.033

Optimal solution found (tolerance 1.00e-04)
Best objective 6.103701967972e+01, best bound 6.103701967972e+01, gap 0.0000%
